NAME: instance_2698
TYPE: TSP
DIMENSION: 20
EDGE_WEIGHT_TYPE: EUC_2D
NODE_COORD_SECTION
0 33.38 67.99
1 13.21 45.22
2 60.18 78.95
3 99.23 42.76
4 67.69 83.81
5 30.29 45.14
6 22.25 28.91
7 87.28 73.42
8 54.10 23.75
9 54.58 21.22
10 59.97 68.16
11 13.14 17.82
12 61.57 91.78
13 54.45 63.73
14 70.11 83.75
15 6.24 27.42
16 38.49 98.95
17 95.96 42.83
18 56.64 21.04
19 3.31 51.77
EOF
